p cnf 20 12
e 20 0
e 10 0
e 19 0
e 9 0
e 18 0
e 8 0
e 17 0
a 7 0
a 16 0
a 6 0
a 15 0
a 5 0
a 14 0
a 4 0
e 13 0
e 3 0
e 12 0
e 2 0
e 11 0
e 1 0
-10 0
10 19 -9 -18 -8 0
9 18 -8 -17 -7 0
8 17 -7 -16 -6 0
7 16 -6 -15 -5 0
6 15 -5 -14 -4 0
5 14 -4 -13 -3 0
4 13 -3 -12 -2 0
3 12 -2 -11 -1 0
2 1 0
2 -1 0
-2 1 0
